p cnf 47 136
a 9 46 0
e 1 2 3 4 5 6 7 8 10 11 12 13 14 15 16 17 18 19 20 21 22 23 24 25 26 27 28 29 30 31 32 33 34 35 36 37 38 39 40 41 42 43 44 45 47 0
-1 2 0
1 2 0
4 3 0
4 -3 0
-7 -5 0
-7 -6 0
5 6 7 0
4 7 -8 0
-4 -7 -8 0
4 -7 8 0
-4 7 8 0
6 1 -9 0
-6 -1 -9 0
6 -1 9 0
-6 1 9 0
-10 -8 0
-10 -9 0
8 9 10 0
11 -5 -12 0
-11 5 -12 0
11 5 12 0
-11 -5 12 0
3 4 -13 0
-3 -4 -13 0
3 -4 13 0
-3 4 13 0
-14 -12 0
-14 -13 0
12 13 14 0
-15 -8 -16 0
15 8 -16 0
-15 8 16 0
15 -8 16 0
-17 18 -19 0
17 -18 -19 0
-17 -18 19 0
17 18 19 0
-20 -19 0
-20 -19 0
19 20 0
-21 -16 0
-21 20 0
16 -20 21 0
20 23 0
-20 23 0
-22 23 -24 0
22 -23 -24 0
-22 -23 24 0
22 23 24 0
25 -5 0
25 -7 0
5 7 -25 0
-26 24 0
-26 25 0
-24 -25 26 0
-21 26 -27 0
21 -26 -27 0
-21 -26 27 0
21 26 27 0
28 14 0
28 -27 0
-14 27 -28 0
-17 -29 -30 0
17 29 -30 0
-17 29 30 0
17 -29 30 0
-31 -8 0
-31 30 0
8 -30 31 0
-28 -31 -32 0
28 31 -32 0
-28 31 32 0
28 -31 32 0
-10 32 -33 0
10 -32 -33 0
-10 -32 33 0
10 32 33 0
-2 -33 -34 0
2 33 -34 0
-2 33 34 0
2 -33 34 0
35 15 0
35 -15 0
-9 18 -36 0
9 -18 -36 0
-9 -18 36 0
9 18 36 0
37 -35 0
37 -36 0
35 36 -37 0
8 -7 -38 0
-8 7 -38 0
8 7 38 0
-8 -7 38 0
-39 37 0
-39 38 0
-37 -38 39 0
4 6 -40 0
-4 -6 -40 0
4 -6 40 0
-4 6 40 0
-41 23 0
-41 -40 0
-23 40 41 0
42 29 0
42 -4 0
-29 4 -42 0
43 15 0
43 17 0
-15 -17 -43 0
-44 -42 0
-44 -43 0
42 43 44 0
-45 -41 0
-45 -44 0
41 44 45 0
-46 -39 0
-46 45 0
39 -45 46 0
34 -46 -47 0
-34 46 -47 0
34 46 47 0
-34 -46 47 0
-40 44 6 0
-36 22 -9 0
-44 -42 -21 -2 30 -27 38 0
-19 2 7 -11 22 20 0
-22 45 32 34 -23 0
20 -9 31 4 36 16 -2 -33 0
-35 -42 24 4 -33 0
37 -13 5 4 38 -3 47 0
6 40 28 35 37 0
-33 4 -12 0
-40 9 31 1 11 26 0
-43 4 -32 5 39 0
47 0
